TYPE : Vertex Cover
DIMENSION: 36
EDGE_DATA_SECTION:
0 3
0 5
0 6
0 9
0 12
0 20
0 23
0 24
0 25
0 26
1 7
2 3
2 6
2 24
2 32
2 33
3 14
3 15
3 18
3 20
3 21
3 31
4 6
4 8
4 11
4 14
4 15
4 16
4 17
4 20
5 7
5 13
5 19
5 20
5 35
6 7
6 8
6 9
6 11
6 14
6 25
6 31
6 33
7 10
7 24
7 25
7 27
7 28
7 32
7 35
8 20
8 21
8 24
8 28
8 33
8 34
8 35
9 12
9 28
9 34
10 13
10 15
10 17
10 18
10 25
10 28
10 29
10 32
11 14
11 19
11 26
11 28
11 31
11 33
11 35
12 13
12 14
12 17
12 18
12 19
12 22
12 24
12 25
12 27
12 29
12 32
13 15
13 23
13 32
13 33
13 34
14 17
14 18
14 21
14 24
14 27
14 28
15 17
15 21
15 25
15 29
15 34
16 19
16 25
16 29
17 23
17 25
17 28
18 22
18 26
18 27
18 35
19 23
19 25
19 26
19 34
20 21
20 23
20 28
20 29
20 30
20 34
21 24
21 25
21 26
21 32
21 35
22 26
22 27
22 28
22 32
22 35
23 35
24 27
25 31
26 28
26 29
26 32
26 34
26 35
27 35
28 29
28 31
29 30
29 33
30 34
32 35
33 35
34 35
-1
VERTEX_DEGREE:
10.0 1.0 5.0 8.0 8.0 6.0 11.0 10.0 9.0 5.0 9.0 9.0 13.0 8.0 11.0 9.0 4.0 8.0 8.0 8.0 11.0 10.0 7.0 6.0 8.0 11.0 11.0 7.0 12.0 9.0 3.0 5.0 9.0 7.0 9.0 13.0
VERTEX_COVER:
0 3 4 6 7 11 12 13 15 17 18 19 20 21 24 25 26 27 28 29 32 33 34 35
EOF
